c
p cnf 37 50
16 -9 0
-31 29 0
-3 -22 0
-4 -24 0
-32 -25 0
2 -3 0
-11 25 0
25 28 0
-25 -26 0
3 29 0
-23 10 0
33 -25 0
-23 -21 0
-11 24 0
1 -32 0
4 -11 0
37 19 0
28 15 0
-27 37 0
-35 -37 0
-6 -35 0
3 17 0
-28 14 0
-37 -28 0
-15 -4 0
10 5 0
27 -3 0
-2 -27 0
21 30 0
25 6 0
23 29 0
30 4 0
-24 16 0
3 22 0
25 5 0
13 14 0
5 -32 0
-28 -19 0
11 9 0
22 21 0
-20 23 0
-30 -21 0
15 -32 0
23 21 0
-20 -27 0
20 33 0
-15 -10 0
-16 -9 0
-21 34 0
12 2 0
